42      4       
10      10      10      12      
0       0       0       0       0       2       2       3       
6       0       0       4       0       2       6       7       
4       0       0       5       0       1       4       
6       0       0       1       0       1       5       
5       8       0       0       0       2       6       7       
2       0       0       0       8       1       21      
6       0       0       0       6       1       8       
5       0       5       0       0       1       9       
3       4       0       0       0       1       10      
4       0       0       0       10      1       11      
1       2       0       0       0       1       12      
6       0       0       0       6       1       13      
7       0       0       0       5       1       14      
2       10      0       0       0       1       15      
2       0       0       0       3       1       16      
6       0       0       10      0       1       17      
5       10      0       0       0       1       18      
3       0       0       8       0       1       19      
4       8       0       0       0       1       20      
6       7       0       0       0       2       22      36      
8       0       0       0       6       1       31      
7       0       0       3       0       1       23      
10      0       3       0       0       1       24      
4       0       7       0       0       1       25      
2       5       0       0       0       1       26      
8       0       0       0       9       1       27      
8       0       0       0       10      1       28      
9       0       10      0       0       1       29      
9       5       0       0       0       1       30      
7       5       0       0       0       1       33      
4       0       1       0       0       1       32      
2       0       10      0       0       1       35      
2       0       1       0       0       1       34      
5       5       0       0       0       2       40      41      
9       0       6       0       0       1       36      
7       5       0       0       0       1       37      
10      2       0       0       0       1       38      
7       4       0       0       0       1       39      
3       0       7       0       0       1       42      
10      0       10      0       0       1       42      
9       0       0       7       0       1       42      
0       0       0       0       0       0       
